p cnf 204 1200
1 -91 0
1 -92 0
91 -91 0
92 -92 0
19 -97 0
19 -98 0
97 -97 0
98 -98 0
37 -103 0
37 -104 0
103 -103 0
104 -104 0
55 -109 0
55 -110 0
109 -109 0
110 -110 0
73 -115 0
73 -116 0
115 -115 0
116 -116 0
2 -91 0
2 -92 0
91 -91 0
92 -92 0
20 -97 0
20 -98 0
97 -97 0
98 -98 0
38 -103 0
38 -104 0
103 -103 0
104 -104 0
56 -109 0
56 -110 0
109 -109 0
110 -110 0
74 -115 0
74 -116 0
115 -115 0
116 -116 0
-3 -91 0
-3 -92 0
91 -91 0
92 -92 0
-21 -97 0
-21 -98 0
97 -97 0
98 -98 0
-39 -103 0
-39 -104 0
103 -103 0
104 -104 0
-57 -109 0
-57 -110 0
109 -109 0
110 -110 0
-75 -115 0
-75 -116 0
115 -115 0
116 -116 0
4 -91 0
4 -92 0
91 -91 0
92 -92 0
22 -97 0
22 -98 0
97 -97 0
98 -98 0
40 -103 0
40 -104 0
103 -103 0
104 -104 0
58 -109 0
58 -110 0
109 -109 0
110 -110 0
76 -115 0
76 -116 0
115 -115 0
116 -116 0
5 -91 0
5 -92 0
91 -91 0
92 -92 0
23 -97 0
23 -98 0
97 -97 0
98 -98 0
41 -103 0
41 -104 0
103 -103 0
104 -104 0
59 -109 0
59 -110 0
109 -109 0
110 -110 0
77 -115 0
77 -116 0
115 -115 0
116 -116 0
6 -91 0
6 -92 0
91 -91 0
92 -92 0
24 -97 0
24 -98 0
97 -97 0
98 -98 0
42 -103 0
42 -104 0
103 -103 0
104 -104 0
60 -109 0
60 -110 0
109 -109 0
110 -110 0
78 -115 0
78 -116 0
115 -115 0
116 -116 0
7 -91 0
7 -92 0
91 -91 0
92 -92 0
25 -97 0
25 -98 0
97 -97 0
98 -98 0
43 -103 0
43 -104 0
103 -103 0
104 -104 0
61 -109 0
61 -110 0
109 -109 0
110 -110 0
79 -115 0
79 -116 0
115 -115 0
116 -116 0
8 -91 0
8 -92 0
91 -91 0
92 -92 0
26 -97 0
26 -98 0
97 -97 0
98 -98 0
44 -103 0
44 -104 0
103 -103 0
104 -104 0
62 -109 0
62 -110 0
109 -109 0
110 -110 0
80 -115 0
80 -116 0
115 -115 0
116 -116 0
9 -91 0
9 -92 0
91 -91 0
92 -92 0
27 -97 0
27 -98 0
97 -97 0
98 -98 0
45 -103 0
45 -104 0
103 -103 0
104 -104 0
63 -109 0
63 -110 0
109 -109 0
110 -110 0
81 -115 0
81 -116 0
115 -115 0
116 -116 0
-10 -91 0
-10 -92 0
91 -91 0
92 -92 0
-28 -97 0
-28 -98 0
97 -97 0
98 -98 0
-46 -103 0
-46 -104 0
103 -103 0
104 -104 0
-64 -109 0
-64 -110 0
109 -109 0
110 -110 0
-82 -115 0
-82 -116 0
115 -115 0
116 -116 0
11 -91 0
11 -92 0
91 -91 0
92 -92 0
29 -97 0
29 -98 0
97 -97 0
98 -98 0
47 -103 0
47 -104 0
103 -103 0
104 -104 0
65 -109 0
65 -110 0
109 -109 0
110 -110 0
83 -115 0
83 -116 0
115 -115 0
116 -116 0
-12 -91 0
-12 -92 0
91 -91 0
92 -92 0
-30 -97 0
-30 -98 0
97 -97 0
98 -98 0
-48 -103 0
-48 -104 0
103 -103 0
104 -104 0
-66 -109 0
-66 -110 0
109 -109 0
110 -110 0
-84 -115 0
-84 -116 0
115 -115 0
116 -116 0
-13 -91 0
-13 -92 0
91 -91 0
92 -92 0
-31 -97 0
-31 -98 0
97 -97 0
98 -98 0
-49 -103 0
-49 -104 0
103 -103 0
104 -104 0
-67 -109 0
-67 -110 0
109 -109 0
110 -110 0
-85 -115 0
-85 -116 0
115 -115 0
116 -116 0
-14 -91 0
-14 -92 0
91 -91 0
92 -92 0
-32 -97 0
-32 -98 0
97 -97 0
98 -98 0
-50 -103 0
-50 -104 0
103 -103 0
104 -104 0
-68 -109 0
-68 -110 0
109 -109 0
110 -110 0
-86 -115 0
-86 -116 0
115 -115 0
116 -116 0
-15 -91 0
-15 -92 0
91 -91 0
92 -92 0
-33 -97 0
-33 -98 0
97 -97 0
98 -98 0
-51 -103 0
-51 -104 0
103 -103 0
104 -104 0
-69 -109 0
-69 -110 0
109 -109 0
110 -110 0
-87 -115 0
-87 -116 0
115 -115 0
116 -116 0
-16 -91 0
-16 -92 0
91 -91 0
92 -92 0
-34 -97 0
-34 -98 0
97 -97 0
98 -98 0
-52 -103 0
-52 -104 0
103 -103 0
104 -104 0
-70 -109 0
-70 -110 0
109 -109 0
110 -110 0
-88 -115 0
-88 -116 0
115 -115 0
116 -116 0
-17 -91 0
-17 -92 0
91 -91 0
92 -92 0
-35 -97 0
-35 -98 0
97 -97 0
98 -98 0
-53 -103 0
-53 -104 0
103 -103 0
104 -104 0
-71 -109 0
-71 -110 0
109 -109 0
110 -110 0
-89 -115 0
-89 -116 0
115 -115 0
116 -116 0
18 -91 0
18 -92 0
91 -91 0
92 -92 0
36 -97 0
36 -98 0
97 -97 0
98 -98 0
54 -103 0
54 -104 0
103 -103 0
104 -104 0
72 -109 0
72 -110 0
109 -109 0
110 -110 0
90 -115 0
90 -116 0
115 -115 0
116 -116 0
-175 91 0
175 -91 0
-176 92 0
175 -92 0
-175 -91 0
-176 -92 0
-181 91 175 0
181 -91 0
181 -175 0
-182 92 176 0
182 -92 0
182 -176 0
-181 -97 0
-182 -98 0
-187 97 181 0
187 -97 0
187 -181 0
-188 98 182 0
188 -98 0
188 -182 0
-187 -103 0
-188 -104 0
-193 103 187 0
193 -103 0
193 -187 0
-194 104 188 0
194 -104 0
194 -188 0
-193 -109 0
-194 -110 0
-199 109 193 0
199 -109 0
199 -193 0
-200 110 194 0
200 -110 0
200 -194 0
-199 -115 0
-200 -116 0
199 0
200 0
1 -93 0
1 -94 0
93 -93 0
94 -94 0
19 -99 0
19 -100 0
99 -99 0
100 -100 0
37 -105 0
37 -106 0
105 -105 0
106 -106 0
55 -111 0
55 -112 0
111 -111 0
112 -112 0
73 -117 0
73 -118 0
117 -117 0
118 -118 0
-2 -93 0
-2 -94 0
93 -93 0
94 -94 0
-20 -99 0
-20 -100 0
99 -99 0
100 -100 0
-38 -105 0
-38 -106 0
105 -105 0
106 -106 0
-56 -111 0
-56 -112 0
111 -111 0
112 -112 0
-74 -117 0
-74 -118 0
117 -117 0
118 -118 0
3 -93 0
3 -94 0
93 -93 0
94 -94 0
21 -99 0
21 -100 0
99 -99 0
100 -100 0
39 -105 0
39 -106 0
105 -105 0
106 -106 0
57 -111 0
57 -112 0
111 -111 0
112 -112 0
75 -117 0
75 -118 0
117 -117 0
118 -118 0
-4 -93 0
-4 -94 0
93 -93 0
94 -94 0
-22 -99 0
-22 -100 0
99 -99 0
100 -100 0
-40 -105 0
-40 -106 0
105 -105 0
106 -106 0
-58 -111 0
-58 -112 0
111 -111 0
112 -112 0
-76 -117 0
-76 -118 0
117 -117 0
118 -118 0
-5 -93 0
-5 -94 0
93 -93 0
94 -94 0
-23 -99 0
-23 -100 0
99 -99 0
100 -100 0
-41 -105 0
-41 -106 0
105 -105 0
106 -106 0
-59 -111 0
-59 -112 0
111 -111 0
112 -112 0
-77 -117 0
-77 -118 0
117 -117 0
118 -118 0
6 -93 0
6 -94 0
93 -93 0
94 -94 0
24 -99 0
24 -100 0
99 -99 0
100 -100 0
42 -105 0
42 -106 0
105 -105 0
106 -106 0
60 -111 0
60 -112 0
111 -111 0
112 -112 0
78 -117 0
78 -118 0
117 -117 0
118 -118 0
-7 -93 0
-7 -94 0
93 -93 0
94 -94 0
-25 -99 0
-25 -100 0
99 -99 0
100 -100 0
-43 -105 0
-43 -106 0
105 -105 0
106 -106 0
-61 -111 0
-61 -112 0
111 -111 0
112 -112 0
-79 -117 0
-79 -118 0
117 -117 0
118 -118 0
8 -93 0
8 -94 0
93 -93 0
94 -94 0
26 -99 0
26 -100 0
99 -99 0
100 -100 0
44 -105 0
44 -106 0
105 -105 0
106 -106 0
62 -111 0
62 -112 0
111 -111 0
112 -112 0
80 -117 0
80 -118 0
117 -117 0
118 -118 0
9 -93 0
9 -94 0
93 -93 0
94 -94 0
27 -99 0
27 -100 0
99 -99 0
100 -100 0
45 -105 0
45 -106 0
105 -105 0
106 -106 0
63 -111 0
63 -112 0
111 -111 0
112 -112 0
81 -117 0
81 -118 0
117 -117 0
118 -118 0
-10 -93 0
-10 -94 0
93 -93 0
94 -94 0
-28 -99 0
-28 -100 0
99 -99 0
100 -100 0
-46 -105 0
-46 -106 0
105 -105 0
106 -106 0
-64 -111 0
-64 -112 0
111 -111 0
112 -112 0
-82 -117 0
-82 -118 0
117 -117 0
118 -118 0
11 -93 0
11 -94 0
93 -93 0
94 -94 0
29 -99 0
29 -100 0
99 -99 0
100 -100 0
47 -105 0
47 -106 0
105 -105 0
106 -106 0
65 -111 0
65 -112 0
111 -111 0
112 -112 0
83 -117 0
83 -118 0
117 -117 0
118 -118 0
-12 -93 0
-12 -94 0
93 -93 0
94 -94 0
-30 -99 0
-30 -100 0
99 -99 0
100 -100 0
-48 -105 0
-48 -106 0
105 -105 0
106 -106 0
-66 -111 0
-66 -112 0
111 -111 0
112 -112 0
-84 -117 0
-84 -118 0
117 -117 0
118 -118 0
-13 -93 0
-13 -94 0
93 -93 0
94 -94 0
-31 -99 0
-31 -100 0
99 -99 0
100 -100 0
-49 -105 0
-49 -106 0
105 -105 0
106 -106 0
-67 -111 0
-67 -112 0
111 -111 0
112 -112 0
-85 -117 0
-85 -118 0
117 -117 0
118 -118 0
-14 -93 0
-14 -94 0
93 -93 0
94 -94 0
-32 -99 0
-32 -100 0
99 -99 0
100 -100 0
-50 -105 0
-50 -106 0
105 -105 0
106 -106 0
-68 -111 0
-68 -112 0
111 -111 0
112 -112 0
-86 -117 0
-86 -118 0
117 -117 0
118 -118 0
15 -93 0
15 -94 0
93 -93 0
94 -94 0
33 -99 0
33 -100 0
99 -99 0
100 -100 0
51 -105 0
51 -106 0
105 -105 0
106 -106 0
69 -111 0
69 -112 0
111 -111 0
112 -112 0
87 -117 0
87 -118 0
117 -117 0
118 -118 0
-16 -93 0
-16 -94 0
93 -93 0
94 -94 0
-34 -99 0
-34 -100 0
99 -99 0
100 -100 0
-52 -105 0
-52 -106 0
105 -105 0
106 -106 0
-70 -111 0
-70 -112 0
111 -111 0
112 -112 0
-88 -117 0
-88 -118 0
117 -117 0
118 -118 0
17 -93 0
17 -94 0
93 -93 0
94 -94 0
35 -99 0
35 -100 0
99 -99 0
100 -100 0
53 -105 0
53 -106 0
105 -105 0
106 -106 0
71 -111 0
71 -112 0
111 -111 0
112 -112 0
89 -117 0
89 -118 0
117 -117 0
118 -118 0
18 -93 0
18 -94 0
93 -93 0
94 -94 0
36 -99 0
36 -100 0
99 -99 0
100 -100 0
54 -105 0
54 -106 0
105 -105 0
106 -106 0
72 -111 0
72 -112 0
111 -111 0
112 -112 0
90 -117 0
90 -118 0
117 -117 0
118 -118 0
-177 93 0
177 -93 0
-178 94 0
177 -94 0
-177 -93 0
-178 -94 0
-183 93 177 0
183 -93 0
183 -177 0
-184 94 178 0
184 -94 0
184 -178 0
-183 -99 0
-184 -100 0
-189 99 183 0
189 -99 0
189 -183 0
-190 100 184 0
190 -100 0
190 -184 0
-189 -105 0
-190 -106 0
-195 105 189 0
195 -105 0
195 -189 0
-196 106 190 0
196 -106 0
196 -190 0
-195 -111 0
-196 -112 0
-201 111 195 0
201 -111 0
201 -195 0
-202 112 196 0
202 -112 0
202 -196 0
-201 -117 0
-202 -118 0
201 0
202 0
1 -121 -95 0
-1 121 -95 0
1 121 -96 0
-1 -121 -96 0
19 -121 -101 0
-19 121 -101 0
19 121 -102 0
-19 -121 -102 0
37 -121 -107 0
-37 121 -107 0
37 121 -108 0
-37 -121 -108 0
55 -121 -113 0
-55 121 -113 0
55 121 -114 0
-55 -121 -114 0
73 -121 -119 0
-73 121 -119 0
73 121 -120 0
-73 -121 -120 0
2 -95 0
2 -96 0
95 -95 0
96 -96 0
20 -101 0
20 -102 0
101 -101 0
102 -102 0
38 -107 0
38 -108 0
107 -107 0
108 -108 0
56 -113 0
56 -114 0
113 -113 0
114 -114 0
74 -119 0
74 -120 0
119 -119 0
120 -120 0
3 -122 -95 0
-3 122 -95 0
3 122 -96 0
-3 -122 -96 0
21 -122 -101 0
-21 122 -101 0
21 122 -102 0
-21 -122 -102 0
39 -122 -107 0
-39 122 -107 0
39 122 -108 0
-39 -122 -108 0
57 -122 -113 0
-57 122 -113 0
57 122 -114 0
-57 -122 -114 0
75 -122 -119 0
-75 122 -119 0
75 122 -120 0
-75 -122 -120 0
4 -95 0
4 -96 0
95 -95 0
96 -96 0
22 -101 0
22 -102 0
101 -101 0
102 -102 0
40 -107 0
40 -108 0
107 -107 0
108 -108 0
58 -113 0
58 -114 0
113 -113 0
114 -114 0
76 -119 0
76 -120 0
119 -119 0
120 -120 0
5 -95 0
5 -96 0
95 -95 0
96 -96 0
23 -101 0
23 -102 0
101 -101 0
102 -102 0
41 -107 0
41 -108 0
107 -107 0
108 -108 0
59 -113 0
59 -114 0
113 -113 0
114 -114 0
77 -119 0
77 -120 0
119 -119 0
120 -120 0
6 -123 -95 0
-6 123 -95 0
6 123 -96 0
-6 -123 -96 0
24 -123 -101 0
-24 123 -101 0
24 123 -102 0
-24 -123 -102 0
42 -123 -107 0
-42 123 -107 0
42 123 -108 0
-42 -123 -108 0
60 -123 -113 0
-60 123 -113 0
60 123 -114 0
-60 -123 -114 0
78 -123 -119 0
-78 123 -119 0
78 123 -120 0
-78 -123 -120 0
7 -124 -95 0
-7 124 -95 0
7 124 -96 0
-7 -124 -96 0
25 -124 -101 0
-25 124 -101 0
25 124 -102 0
-25 -124 -102 0
43 -124 -107 0
-43 124 -107 0
43 124 -108 0
-43 -124 -108 0
61 -124 -113 0
-61 124 -113 0
61 124 -114 0
-61 -124 -114 0
79 -124 -119 0
-79 124 -119 0
79 124 -120 0
-79 -124 -120 0
8 -125 -95 0
-8 125 -95 0
8 125 -96 0
-8 -125 -96 0
26 -125 -101 0
-26 125 -101 0
26 125 -102 0
-26 -125 -102 0
44 -125 -107 0
-44 125 -107 0
44 125 -108 0
-44 -125 -108 0
62 -125 -113 0
-62 125 -113 0
62 125 -114 0
-62 -125 -114 0
80 -125 -119 0
-80 125 -119 0
80 125 -120 0
-80 -125 -120 0
9 -126 -95 0
-9 126 -95 0
9 126 -96 0
-9 -126 -96 0
27 -126 -101 0
-27 126 -101 0
27 126 -102 0
-27 -126 -102 0
45 -126 -107 0
-45 126 -107 0
45 126 -108 0
-45 -126 -108 0
63 -126 -113 0
-63 126 -113 0
63 126 -114 0
-63 -126 -114 0
81 -126 -119 0
-81 126 -119 0
81 126 -120 0
-81 -126 -120 0
10 -127 -95 0
-10 127 -95 0
10 127 -96 0
-10 -127 -96 0
28 -127 -101 0
-28 127 -101 0
28 127 -102 0
-28 -127 -102 0
46 -127 -107 0
-46 127 -107 0
46 127 -108 0
-46 -127 -108 0
64 -127 -113 0
-64 127 -113 0
64 127 -114 0
-64 -127 -114 0
82 -127 -119 0
-82 127 -119 0
82 127 -120 0
-82 -127 -120 0
11 -128 -95 0
-11 128 -95 0
11 128 -96 0
-11 -128 -96 0
29 -128 -101 0
-29 128 -101 0
29 128 -102 0
-29 -128 -102 0
47 -128 -107 0
-47 128 -107 0
47 128 -108 0
-47 -128 -108 0
65 -128 -113 0
-65 128 -113 0
65 128 -114 0
-65 -128 -114 0
83 -128 -119 0
-83 128 -119 0
83 128 -120 0
-83 -128 -120 0
12 -129 -95 0
-12 129 -95 0
12 129 -96 0
-12 -129 -96 0
30 -129 -101 0
-30 129 -101 0
30 129 -102 0
-30 -129 -102 0
48 -129 -107 0
-48 129 -107 0
48 129 -108 0
-48 -129 -108 0
66 -129 -113 0
-66 129 -113 0
66 129 -114 0
-66 -129 -114 0
84 -129 -119 0
-84 129 -119 0
84 129 -120 0
-84 -129 -120 0
13 -130 -95 0
-13 130 -95 0
13 130 -96 0
-13 -130 -96 0
31 -130 -101 0
-31 130 -101 0
31 130 -102 0
-31 -130 -102 0
49 -130 -107 0
-49 130 -107 0
49 130 -108 0
-49 -130 -108 0
67 -130 -113 0
-67 130 -113 0
67 130 -114 0
-67 -130 -114 0
85 -130 -119 0
-85 130 -119 0
85 130 -120 0
-85 -130 -120 0
14 -131 -95 0
-14 131 -95 0
14 131 -96 0
-14 -131 -96 0
32 -131 -101 0
-32 131 -101 0
32 131 -102 0
-32 -131 -102 0
50 -131 -107 0
-50 131 -107 0
50 131 -108 0
-50 -131 -108 0
68 -131 -113 0
-68 131 -113 0
68 131 -114 0
-68 -131 -114 0
86 -131 -119 0
-86 131 -119 0
86 131 -120 0
-86 -131 -120 0
15 -132 -95 0
-15 132 -95 0
15 132 -96 0
-15 -132 -96 0
33 -132 -101 0
-33 132 -101 0
33 132 -102 0
-33 -132 -102 0
51 -132 -107 0
-51 132 -107 0
51 132 -108 0
-51 -132 -108 0
69 -132 -113 0
-69 132 -113 0
69 132 -114 0
-69 -132 -114 0
87 -132 -119 0
-87 132 -119 0
87 132 -120 0
-87 -132 -120 0
16 -133 -95 0
-16 133 -95 0
16 133 -96 0
-16 -133 -96 0
34 -133 -101 0
-34 133 -101 0
34 133 -102 0
-34 -133 -102 0
52 -133 -107 0
-52 133 -107 0
52 133 -108 0
-52 -133 -108 0
70 -133 -113 0
-70 133 -113 0
70 133 -114 0
-70 -133 -114 0
88 -133 -119 0
-88 133 -119 0
88 133 -120 0
-88 -133 -120 0
17 -95 0
17 -96 0
95 -95 0
96 -96 0
35 -101 0
35 -102 0
101 -101 0
102 -102 0
53 -107 0
53 -108 0
107 -107 0
108 -108 0
71 -113 0
71 -114 0
113 -113 0
114 -114 0
89 -119 0
89 -120 0
119 -119 0
120 -120 0
18 -95 0
18 -96 0
95 -95 0
96 -96 0
36 -101 0
36 -102 0
101 -101 0
102 -102 0
54 -107 0
54 -108 0
107 -107 0
108 -108 0
72 -113 0
72 -114 0
113 -113 0
114 -114 0
90 -119 0
90 -120 0
119 -119 0
120 -120 0
-179 95 0
179 -95 0
-180 96 0
179 -96 0
-179 -95 0
-180 -96 0
-185 95 179 0
185 -95 0
185 -179 0
-186 96 180 0
186 -96 0
186 -180 0
-185 -101 0
-186 -102 0
-191 101 185 0
191 -101 0
191 -185 0
-192 102 186 0
192 -102 0
192 -186 0
-191 -107 0
-192 -108 0
-197 107 191 0
197 -107 0
197 -191 0
-198 108 192 0
198 -108 0
198 -192 0
-197 -113 0
-198 -114 0
-203 113 197 0
203 -113 0
203 -197 0
-204 114 198 0
204 -114 0
204 -198 0
-203 -119 0
-204 -120 0
203 0
204 0
